p cnf 252 211
-1 2 3 4 6 7 18 19 58 77 78 79 80 81 82 83 86 88 89 111 145 157 158 160 163 165 172 173 174 175 176 177 178 179 180 181 182 184 185 186 187 188 189 190 191 193 199 200 201 202 223 224 226 227 228 229 230 231 232 233 234 236 237 238 239 240 241 242 243 244 245 247 -249 -250 -109 0 
-2 1 3 4 6 7 18 19 58 77 78 79 80 81 82 83 86 88 89 111 145 157 158 160 163 165 172 173 174 175 176 177 178 179 180 181 182 184 185 186 187 188 189 190 191 193 199 200 201 202 223 224 226 227 228 229 230 231 232 233 234 236 237 238 239 240 241 242 243 244 245 247 -249 -250 -109 0 
-3 1 2 4 6 7 18 19 58 77 78 79 80 81 82 83 86 88 89 111 145 157 158 160 163 165 172 173 174 175 176 177 178 179 180 181 182 184 185 186 187 188 189 190 191 193 199 200 201 202 223 224 226 227 228 229 230 231 232 233 234 236 237 238 239 240 241 242 243 244 245 247 -249 -250 -109 0 
-4 1 2 3 6 7 18 19 58 77 78 79 80 81 82 83 86 88 89 111 145 157 158 160 163 165 172 173 174 175 176 177 178 179 180 181 182 184 185 186 187 188 189 190 191 193 199 200 201 202 223 224 226 227 228 229 230 231 232 233 234 236 237 238 239 240 241 242 243 244 245 247 -249 -250 -109 0 
-5 10 13 17 23 29 93 127 144 169 235 248 -249 -250 -12 -21 -24 -37 0 
-6 1 2 3 4 7 18 19 58 77 78 79 80 81 82 83 86 88 89 111 145 157 158 160 163 165 172 173 174 175 176 177 178 179 180 181 182 184 185 186 187 188 189 190 191 193 199 200 201 202 223 224 226 227 228 229 230 231 232 233 234 236 237 238 239 240 241 242 243 244 245 248 -249 -250 -12 -21 -24 -37 0 
-7 1 2 3 4 6 18 19 58 77 78 79 80 81 82 83 86 88 89 111 145 157 158 160 163 165 172 173 174 175 176 177 178 179 180 181 182 184 185 186 187 188 189 190 191 193 199 200 201 202 223 224 226 227 228 229 230 231 232 233 234 236 237 238 239 240 241 242 243 244 245 248 -249 -250 -12 -21 -24 -37 0 
-24 12 21 37 249 -250 0 
-25 250 -249 0 
-26 38 43 -27 73 -28 104 250 -249 0 
-26 38 43 -27 73 -10 5 13 17 23 29 93 127 144 169 235 250 -249 0 
-26 38 43 -27 73 -29 5 10 13 17 23 93 127 144 169 235 250 -249 0 
-30 -31 249 -250 0 
-32 98 250 -249 0 
-33 69 -27 73 250 -249 0 
-34 250 -249 0 
-35 70 250 -249 0 
-26 38 43 -21 12 24 37 -36 46 61 71 122 142 156 162 164 168 204 205 206 207 208 246 250 -249 0 
-37 12 21 24 249 -250 0 
-38 26 43 249 -250 0 
-26 38 43 -39 107 250 -249 0 
-27 73 -40 48 65 66 96 143 148 250 -249 0 
-26 38 43 -41 57 97 250 -249 0 
-42 53 121 -43 26 38 248 -249 -250 -12 -21 -24 -37 0 
-26 38 43 -27 73 250 -249 0 
-44 250 -249 0 
-35 70 -45 250 -249 0 
-26 38 43 -21 12 24 37 -46 36 61 71 122 142 156 162 164 168 204 205 206 207 208 246 -47 250 -249 0 
-26 38 43 -21 12 24 37 -48 40 65 66 96 143 148 -47 250 -249 0 
-12 21 24 37 249 -250 0 
-49 106 214 250 -249 0 
-50 60 67 112 250 -249 0 
-51 8 14 20 87 126 129 171 194 250 -249 0 
-52 250 -249 0 
-53 42 121 -54 250 -249 0 
-12 21 24 37 -55 249 -250 0 
-42 53 121 -55 247 -249 -250 -109 0 
-56 137 151 250 -249 0 
-21 12 24 37 -57 41 97 250 -249 0 
-58 1 2 3 4 6 7 18 19 77 78 79 80 81 82 83 86 88 89 111 145 157 158 160 163 165 172 173 174 175 176 177 178 179 180 181 182 184 185 186 187 188 189 190 191 193 199 200 201 202 223 224 226 227 228 229 230 231 232 233 234 236 237 238 239 240 241 242 243 244 245 248 -249 -250 -12 -21 -24 -37 0 
-59 22 115 131 195 203 -60 50 67 112 250 -249 0 
-61 36 46 71 122 142 156 162 164 168 204 205 206 207 208 246 -62 136 146 147 250 -249 0 
-63 -43 26 38 248 -249 -250 -12 -21 -24 -37 0 
-48 40 65 66 96 143 148 251 0 
-40 48 65 66 96 143 148 251 0 
-65 40 48 66 96 143 148 251 0 
-66 40 48 65 96 143 148 251 0 
-36 46 61 71 122 142 156 162 164 168 204 205 206 207 208 246 -67 50 60 112 250 -249 0 
-68 84 85 90 159 161 -21 12 24 37 -69 33 250 -249 0 
-70 35 -55 249 -250 0 
-21 12 24 37 -71 36 46 61 122 142 156 162 164 168 204 205 206 207 208 246 -72 250 -249 0 
-73 27 250 -249 0 
-26 38 43 -51 8 14 20 87 126 129 171 194 250 -249 0 
-26 38 43 -56 137 151 250 -249 0 
-16 11 196 -42 53 121 -74 250 -249 0 
-75 99 154 -76 250 -249 0 
-26 38 43 250 -249 0 
-77 1 2 3 4 6 7 18 19 58 78 79 80 81 82 83 86 88 89 111 145 157 158 160 163 165 172 173 174 175 176 177 178 179 180 181 182 184 185 186 187 188 189 190 191 193 199 200 201 202 223 224 226 227 228 229 230 231 232 233 234 236 237 238 239 240 241 242 243 244 245 248 -249 -250 -12 -21 -24 -37 0 
-78 1 2 3 4 6 7 18 19 58 77 79 80 81 82 83 86 88 89 111 145 157 158 160 163 165 172 173 174 175 176 177 178 179 180 181 182 184 185 186 187 188 189 190 191 193 199 200 201 202 223 224 226 227 228 229 230 231 232 233 234 236 237 238 239 240 241 242 243 244 245 248 -249 -250 -12 -21 -24 -37 0 
-79 1 2 3 4 6 7 18 19 58 77 78 80 81 82 83 86 88 89 111 145 157 158 160 163 165 172 173 174 175 176 177 178 179 180 181 182 184 185 186 187 188 189 190 191 193 199 200 201 202 223 224 226 227 228 229 230 231 232 233 234 236 237 238 239 240 241 242 243 244 245 248 -249 -250 -12 -21 -24 -37 0 
-80 1 2 3 4 6 7 18 19 58 77 78 79 81 82 83 86 88 89 111 145 157 158 160 163 165 172 173 174 175 176 177 178 179 180 181 182 184 185 186 187 188 189 190 191 193 199 200 201 202 223 224 226 227 228 229 230 231 232 233 234 236 237 238 239 240 241 242 243 244 245 248 -249 -250 -12 -21 -24 -37 0 
-91 95 113 114 116 118 119 140 -92 250 -249 0 
-93 5 10 13 17 23 29 127 144 169 235 -94 250 -249 0 
-95 91 113 114 116 118 119 140 247 -249 -250 -109 0 
-27 73 250 -249 0 
-15 192 -96 40 48 65 66 143 148 -21 12 24 37 250 -249 0 
-27 73 -97 41 57 -11 16 196 -17 5 10 13 23 29 93 127 144 169 235 248 -249 -250 -12 -21 -24 -37 0 
-98 32 250 -249 0 
-21 12 24 37 -47 247 -249 -250 -109 0 
-42 53 121 -47 250 -249 0 
-99 75 154 -47 252 -249 -250 -27 -73 0 
-26 38 43 -100 -101 -47 250 -249 0 
-27 73 -28 104 -47 -34 250 -249 0 
-102 -47 -103 250 -249 0 
-21 12 24 37 -104 28 -105 120 211 -34 250 -249 0 
-40 48 65 66 96 143 148 -106 49 214 250 -249 0 
-107 39 -47 250 -249 0 
-35 70 -108 141 250 -249 0 
-109 -47 250 -249 0 
-31 250 -249 0 
-11 16 196 -103 250 -249 0 
-110 -103 250 -249 0 
-47 250 -249 0 
-47 -103 250 -249 0 
-111 1 2 3 4 6 7 18 19 58 77 78 79 80 81 82 83 86 88 89 145 157 158 160 163 165 172 173 174 175 176 177 178 179 180 181 182 184 185 186 187 188 189 190 191 193 199 200 201 202 223 224 226 227 228 229 230 231 232 233 234 236 237 238 239 240 241 242 243 244 245 248 -249 -250 -12 -21 -24 -37 0 
-59 22 115 131 195 203 -112 50 60 67 250 -249 0 
-120 105 211 248 -249 -250 -12 -21 -24 -37 0 
-121 42 53 248 -249 -250 -12 -21 -24 -37 0 
-26 38 43 -11 16 196 -97 41 57 248 -249 -250 -12 -21 -24 -37 0 
-122 36 46 61 71 142 156 162 164 168 204 205 206 207 208 246 248 -249 -250 -12 -21 -24 -37 0 
-27 73 -120 105 211 248 -249 -250 -12 -21 -24 -37 0 
-27 73 -121 42 53 248 -249 -250 -12 -21 -24 -37 0 
-103 250 -249 0 
-43 26 38 249 -250 0 
-43 26 38 252 -249 -250 -27 -73 0 
-124 -125 250 -249 0 
-26 38 43 -15 192 -126 8 14 20 51 87 129 171 194 250 -249 0 
-27 73 -97 41 57 -42 53 121 -122 36 46 61 71 142 156 162 164 168 204 205 206 207 208 246 248 -249 -250 -12 -21 -24 -37 0 
-70 35 -37 12 21 24 249 -250 0 
-127 5 10 13 17 23 29 93 144 169 235 249 -250 0 
-128 -129 8 14 20 51 87 126 171 194 249 -250 0 
-27 73 -130 248 -249 -250 -12 -21 -24 -37 0 
-132 134 135 210 213 250 -249 0 
-133 250 -249 0 
-134 132 135 210 213 250 -249 0 
-26 38 43 -105 120 211 250 -249 0 
-135 132 134 210 213 250 -249 0 
-71 36 46 61 122 142 156 162 164 168 204 205 206 207 208 246 -136 62 146 147 250 -249 0 
-26 38 43 -27 73 -137 56 151 250 -249 0 
-138 250 -249 0 
-139 250 -249 0 
-140 91 95 113 114 116 118 119 248 -249 -250 -12 -21 -24 -37 0 
-110 -141 108 250 -249 0 
-68 84 85 90 159 161 -142 36 46 61 71 122 156 162 164 168 204 205 206 207 208 246 250 -249 0 
-26 38 43 -27 73 -40 48 65 66 96 143 148 250 -249 0 
-143 40 48 65 66 96 148 250 -249 0 
-27 73 -144 5 10 13 17 23 29 93 127 169 235 -16 11 196 250 -249 0 
-21 12 24 37 -145 1 2 3 4 6 7 18 19 58 77 78 79 80 81 82 83 86 88 89 111 157 158 160 163 165 172 173 174 175 176 177 178 179 180 181 182 184 185 186 187 188 189 190 191 193 199 200 201 202 223 224 226 227 228 229 230 231 232 233 234 236 237 238 239 240 241 242 243 244 245 -146 62 136 147 250 -249 0 
-71 36 46 61 122 142 156 162 164 168 204 205 206 207 208 246 -147 62 136 146 250 -249 0 
-120 105 211 -57 41 97 249 -250 0 
-12 21 24 37 -148 40 48 65 66 96 143 249 -250 0 
-149 250 -249 0 
-150 -47 250 -249 0 
-35 70 -42 53 121 250 -249 0 
-143 40 48 65 66 96 148 -147 62 136 146 250 -249 0 
-151 56 137 -152 250 -249 0 
-21 12 24 37 -153 250 -249 0 
-154 75 99 -155 250 -249 0 
-163 1 2 3 4 6 7 18 19 58 77 78 79 80 81 82 83 86 88 89 111 145 157 158 160 165 172 173 174 175 176 177 178 179 180 181 182 184 185 186 187 188 189 190 191 193 199 200 201 202 223 224 226 227 228 229 230 231 232 233 234 236 237 238 239 240 241 242 243 244 245 248 -249 -250 -12 -21 -24 -37 0 
-164 36 46 61 71 122 142 156 162 168 204 205 206 207 208 246 248 -249 -250 -12 -21 -24 -37 0 
-165 1 2 3 4 6 7 18 19 58 77 78 79 80 81 82 83 86 88 89 111 145 157 158 160 163 172 173 174 175 176 177 178 179 180 181 182 184 185 186 187 188 189 190 191 193 199 200 201 202 223 224 226 227 228 229 230 231 232 233 234 236 237 238 239 240 241 242 243 244 245 248 -249 -250 -12 -21 -24 -37 0 
-166 -12 21 24 37 249 -250 0 
-75 99 154 250 -249 0 
-167 216 250 -249 0 
-43 26 38 248 -249 -250 -12 -21 -24 -37 0 
-168 36 46 61 71 122 142 156 162 164 204 205 206 207 208 246 248 -249 -250 -12 -21 -24 -37 0 
-169 5 10 13 17 23 29 93 127 144 235 249 -250 0 
-27 73 -170 248 -249 -250 -12 -21 -24 -37 0 
-128 -37 12 21 24 249 -250 0 
-37 12 21 24 -38 26 43 249 -250 0 
-97 41 57 -27 73 -11 16 196 -17 5 10 13 23 29 93 127 144 169 235 -171 8 14 20 51 87 126 129 194 248 -249 -250 -12 -21 -24 -37 0 
-97 41 57 -27 73 -17 5 10 13 23 29 93 127 144 169 235 -122 36 46 61 71 142 156 162 164 168 204 205 206 207 208 246 248 -249 -250 -12 -21 -24 -37 0 
-27 73 -12 21 24 37 250 -249 0 
-172 1 2 3 4 6 7 18 19 58 77 78 79 80 81 82 83 86 88 89 111 145 157 158 160 163 165 173 174 175 176 177 178 179 180 181 182 184 185 186 187 188 189 190 191 193 199 200 201 202 223 224 226 227 228 229 230 231 232 233 234 236 237 238 239 240 241 242 243 244 245 247 -249 -250 -109 0 
-173 1 2 3 4 6 7 18 19 58 77 78 79 80 81 82 83 86 88 89 111 145 157 158 160 163 165 172 174 175 176 177 178 179 180 181 182 184 185 186 187 188 189 190 191 193 199 200 201 202 223 224 226 227 228 229 230 231 232 233 234 236 237 238 239 240 241 242 243 244 245 247 -249 -250 -109 0 
-174 1 2 3 4 6 7 18 19 58 77 78 79 80 81 82 83 86 88 89 111 145 157 158 160 163 165 172 173 175 176 177 178 179 180 181 182 184 185 186 187 188 189 190 191 193 199 200 201 202 223 224 226 227 228 229 230 231 232 233 234 236 237 238 239 240 241 242 243 244 245 247 -249 -250 -109 0 
-175 1 2 3 4 6 7 18 19 58 77 78 79 80 81 82 83 86 88 89 111 145 157 158 160 163 165 172 173 174 176 177 178 179 180 181 182 184 185 186 187 188 189 190 191 193 199 200 201 202 223 224 226 227 228 229 230 231 232 233 234 236 237 238 239 240 241 242 243 244 245 247 -249 -250 -109 0 
-176 1 2 3 4 6 7 18 19 58 77 78 79 80 81 82 83 86 88 89 111 145 157 158 160 163 165 172 173 174 175 177 178 179 180 181 182 184 185 186 187 188 189 190 191 193 199 200 201 202 223 224 226 227 228 229 230 231 232 233 234 236 237 238 239 240 241 242 243 244 245 247 -249 -250 -109 0 
-177 1 2 3 4 6 7 18 19 58 77 78 79 80 81 82 83 86 88 89 111 145 157 158 160 163 165 172 173 174 175 176 178 179 180 181 182 184 185 186 187 188 189 190 191 193 199 200 201 202 223 224 226 227 228 229 230 231 232 233 234 236 237 238 239 240 241 242 243 244 245 247 -249 -250 -109 0 
-178 1 2 3 4 6 7 18 19 58 77 78 79 80 81 82 83 86 88 89 111 145 157 158 160 163 165 172 173 174 175 176 177 179 180 181 182 184 185 186 187 188 189 190 191 193 199 200 201 202 223 224 226 227 228 229 230 231 232 233 234 236 237 238 239 240 241 242 243 244 245 247 -249 -250 -109 0 
-179 1 2 3 4 6 7 18 19 58 77 78 79 80 81 82 83 86 88 89 111 145 157 158 160 163 165 172 173 174 175 176 177 178 180 181 182 184 185 186 187 188 189 190 191 193 199 200 201 202 223 224 226 227 228 229 230 231 232 233 234 236 237 238 239 240 241 242 243 244 245 247 -249 -250 -109 0 
-180 1 2 3 4 6 7 18 19 58 77 78 79 80 81 82 83 86 88 89 111 145 157 158 160 163 165 172 173 174 175 176 177 178 179 181 182 184 185 186 187 188 189 190 191 193 199 200 201 202 223 224 226 227 228 229 230 231 232 233 234 236 237 238 239 240 241 242 243 244 245 247 -249 -250 -109 0 
-181 1 2 3 4 6 7 18 19 58 77 78 79 80 81 82 83 86 88 89 111 145 157 158 160 163 165 172 173 174 175 176 177 178 179 180 182 184 185 186 187 188 189 190 191 193 199 200 201 202 223 224 226 227 228 229 230 231 232 233 234 236 237 238 239 240 241 242 243 244 245 247 -249 -250 -109 0 
-182 1 2 3 4 6 7 18 19 58 77 78 79 80 81 82 83 86 88 89 111 145 157 158 160 163 165 172 173 174 175 176 177 178 179 180 181 184 185 186 187 188 189 190 191 193 199 200 201 202 223 224 226 227 228 229 230 231 232 233 234 236 237 238 239 240 241 242 243 244 245 247 -249 -250 -109 0 
-183 219 220 -26 38 43 250 -249 0 
-184 1 2 3 4 6 7 18 19 58 77 78 79 80 81 82 83 86 88 89 111 145 157 158 160 163 165 172 173 174 175 176 177 178 179 180 181 182 185 186 187 188 189 190 191 193 199 200 201 202 223 224 226 227 228 229 230 231 232 233 234 236 237 238 239 240 241 242 243 244 245 247 -249 -250 -109 0 
-185 1 2 3 4 6 7 18 19 58 77 78 79 80 81 82 83 86 88 89 111 145 157 158 160 163 165 172 173 174 175 176 177 178 179 180 181 182 184 186 187 188 189 190 191 193 199 200 201 202 223 224 226 227 228 229 230 231 232 233 234 236 237 238 239 240 241 242 243 244 245 247 -249 -250 -109 0 
-186 1 2 3 4 6 7 18 19 58 77 78 79 80 81 82 83 86 88 89 111 145 157 158 160 163 165 172 173 174 175 176 177 178 179 180 181 182 184 185 187 188 189 190 191 193 199 200 201 202 223 224 226 227 228 229 230 231 232 233 234 236 237 238 239 240 241 242 243 244 245 247 -249 -250 -109 0 
-187 1 2 3 4 6 7 18 19 58 77 78 79 80 81 82 83 86 88 89 111 145 157 158 160 163 165 172 173 174 175 176 177 178 179 180 181 182 184 185 186 188 189 190 191 193 199 200 201 202 223 224 226 227 228 229 230 231 232 233 234 236 237 238 239 240 241 242 243 244 245 247 -249 -250 -109 0 
-188 1 2 3 4 6 7 18 19 58 77 78 79 80 81 82 83 86 88 89 111 145 157 158 160 163 165 172 173 174 175 176 177 178 179 180 181 182 184 185 186 187 189 190 191 193 199 200 201 202 223 224 226 227 228 229 230 231 232 233 234 236 237 238 239 240 241 242 243 244 245 247 -249 -250 -109 0 
-189 1 2 3 4 6 7 18 19 58 77 78 79 80 81 82 83 86 88 89 111 145 157 158 160 163 165 172 173 174 175 176 177 178 179 180 181 182 184 185 186 187 188 190 191 193 199 200 201 202 223 224 226 227 228 229 230 231 232 233 234 236 237 238 239 240 241 242 243 244 245 247 -249 -250 -109 0 
-187 1 2 3 4 6 7 18 19 58 77 78 79 80 81 82 83 86 88 89 111 145 157 158 160 163 165 172 173 174 175 176 177 178 179 180 181 182 184 185 186 188 189 190 191 193 199 200 201 202 223 224 226 227 228 229 230 231 232 233 234 236 237 238 239 240 241 242 243 244 245 252 -249 -250 -27 -73 0 
-193 1 2 3 4 6 7 18 19 58 77 78 79 80 81 82 83 86 88 89 111 145 157 158 160 163 165 172 173 174 175 176 177 178 179 180 181 182 184 185 186 187 188 189 190 191 199 200 201 202 223 224 226 227 228 229 230 231 232 233 234 236 237 238 239 240 241 242 243 244 245 -105 120 211 -10 5 13 17 23 29 93 127 144 169 235 -34 250 -249 0 
-195 22 59 115 131 203 -47 250 -249 0 
-21 12 24 37 -196 11 16 -59 22 115 131 195 203 -50 60 67 112 250 -249 0 
-59 22 115 131 195 203 -197 250 -249 0 
-22 59 115 131 195 203 -198 250 -249 0 
-209 250 -249 0 
-210 132 134 135 213 250 -249 0 
-26 38 43 -211 105 120 250 -249 0 
-27 73 -11 16 196 250 -249 0 
-55 247 -249 -250 -109 0 
-212 250 -249 0 
-55 250 -249 0 
-212 247 -249 -250 -109 0 
-213 132 134 135 210 250 -249 0 
-214 49 106 250 -249 0 
-215 250 -249 0 
-26 38 43 -27 73 -216 167 250 -249 0 
-27 73 -97 41 57 -17 5 10 13 23 29 93 127 144 169 235 -217 -171 8 14 20 51 87 126 129 194 248 -249 -250 -12 -21 -24 -37 0 
-218 222 248 -249 -250 -12 -21 -24 -37 0 
-11 16 196 -97 41 57 248 -249 -250 -12 -21 -24 -37 0 
-171 8 14 20 51 87 126 129 194 248 -249 -250 -12 -21 -24 -37 0 
-219 183 220 248 -249 -250 -12 -21 -24 -37 0 
-220 183 219 -34 250 -249 0 
-221 -222 218 249 -250 0 
-17 5 10 13 23 29 93 127 144 169 235 -27 73 -97 41 57 248 -249 -250 -12 -21 -24 -37 0 
-27 73 -42 53 121 -120 105 211 248 -249 -250 -12 -21 -24 -37 0 
-223 1 2 3 4 6 7 18 19 58 77 78 79 80 81 82 83 86 88 89 111 145 157 158 160 163 165 172 173 174 175 176 177 178 179 180 181 182 184 185 186 187 188 189 190 191 193 199 200 201 202 224 226 227 228 229 230 231 232 233 234 236 237 238 239 240 241 242 243 244 245 248 -249 -250 -12 -21 -24 -37 0 
-224 1 2 3 4 6 7 18 19 58 77 78 79 80 81 82 83 86 88 89 111 145 157 158 160 163 165 172 173 174 175 176 177 178 179 180 181 182 184 185 186 187 188 189 190 191 193 199 200 201 202 223 226 227 228 229 230 231 232 233 234 236 237 238 239 240 241 242 243 244 245 248 -249 -250 -12 -21 -24 -37 0 
-27 73 -171 8 14 20 51 87 126 129 194 -97 41 57 -17 5 10 13 23 29 93 127 144 169 235 248 -249 -250 -12 -21 -24 -37 0 
-226 1 2 3 4 6 7 18 19 58 77 78 79 80 81 82 83 86 88 89 111 145 157 158 160 163 165 172 173 174 175 176 177 178 179 180 181 182 184 185 186 187 188 189 190 191 193 199 200 201 202 223 224 227 228 229 230 231 232 233 234 236 237 238 239 240 241 242 243 244 245 247 -249 -250 -109 0 
-227 1 2 3 4 6 7 18 19 58 77 78 79 80 81 82 83 86 88 89 111 145 157 158 160 163 165 172 173 174 175 176 177 178 179 180 181 182 184 185 186 187 188 189 190 191 193 199 200 201 202 223 224 226 228 229 230 231 232 233 234 236 237 238 239 240 241 242 243 244 245 247 -249 -250 -109 0 
-228 1 2 3 4 6 7 18 19 58 77 78 79 80 81 82 83 86 88 89 111 145 157 158 160 163 165 172 173 174 175 176 177 178 179 180 181 182 184 185 186 187 188 189 190 191 193 199 200 201 202 223 224 226 227 229 230 231 232 233 234 236 237 238 239 240 241 242 243 244 245 247 -249 -250 -109 0 
-229 1 2 3 4 6 7 18 19 58 77 78 79 80 81 82 83 86 88 89 111 145 157 158 160 163 165 172 173 174 175 176 177 178 179 180 181 182 184 185 186 187 188 189 190 191 193 199 200 201 202 223 224 226 227 228 230 231 232 233 234 236 237 238 239 240 241 242 243 244 245 247 -249 -250 -109 0 
-230 1 2 3 4 6 7 18 19 58 77 78 79 80 81 82 83 86 88 89 111 145 157 158 160 163 165 172 173 174 175 176 177 178 179 180 181 182 184 185 186 187 188 189 190 191 193 199 200 201 202 223 224 226 227 228 229 231 232 233 234 236 237 238 239 240 241 242 243 244 245 247 -249 -250 -109 0 
-231 1 2 3 4 6 7 18 19 58 77 78 79 80 81 82 83 86 88 89 111 145 157 158 160 163 165 172 173 174 175 176 177 178 179 180 181 182 184 185 186 187 188 189 190 191 193 199 200 201 202 223 224 226 227 228 229 230 232 233 234 236 237 238 239 240 241 242 243 244 245 247 -249 -250 -109 0 
-232 1 2 3 4 6 7 18 19 58 77 78 79 80 81 82 83 86 88 89 111 145 157 158 160 163 165 172 173 174 175 176 177 178 179 180 181 182 184 185 186 187 188 189 190 191 193 199 200 201 202 223 224 226 227 228 229 230 231 233 234 236 237 238 239 240 241 242 243 244 245 247 -249 -250 -109 0 
-233 1 2 3 4 6 7 18 19 58 77 78 79 80 81 82 83 86 88 89 111 145 157 158 160 163 165 172 173 174 175 176 177 178 179 180 181 182 184 185 186 187 188 189 190 191 193 199 200 201 202 223 224 226 227 228 229 230 231 232 234 236 237 238 239 240 241 242 243 244 245 247 -249 -250 -109 0 
-234 1 2 3 4 6 7 18 19 58 77 78 79 80 81 82 83 86 88 89 111 145 157 158 160 163 165 172 173 174 175 176 177 178 179 180 181 182 184 185 186 187 188 189 190 191 193 199 200 201 202 223 224 226 227 228 229 230 231 232 233 236 237 238 239 240 241 242 243 244 245 247 -249 -250 -109 0 
-236 1 2 3 4 6 7 18 19 58 77 78 79 80 81 82 83 86 88 89 111 145 157 158 160 163 165 172 173 174 175 176 177 178 179 180 181 182 184 185 186 187 188 189 190 191 193 199 200 201 202 223 224 226 227 228 229 230 231 232 233 234 237 238 239 240 241 242 243 244 245 247 -249 -250 -109 0 
-237 1 2 3 4 6 7 18 19 58 77 78 79 80 81 82 83 86 88 89 111 145 157 158 160 163 165 172 173 174 175 176 177 178 179 180 181 182 184 185 186 187 188 189 190 191 193 199 200 201 202 223 224 226 227 228 229 230 231 232 233 234 236 238 239 240 241 242 243 244 245 247 -249 -250 -109 0 
-238 1 2 3 4 6 7 18 19 58 77 78 79 80 81 82 83 86 88 89 111 145 157 158 160 163 165 172 173 174 175 176 177 178 179 180 181 182 184 185 186 187 188 189 190 191 193 199 200 201 202 223 224 226 227 228 229 230 231 232 233 234 236 237 239 240 241 242 243 244 245 247 -249 -250 -109 0 
-239 1 2 3 4 6 7 18 19 58 77 78 79 80 81 82 83 86 88 89 111 145 157 158 160 163 165 172 173 174 175 176 177 178 179 180 181 182 184 185 186 187 188 189 190 191 193 199 200 201 202 223 224 226 227 228 229 230 231 232 233 234 236 237 238 240 241 242 243 244 245 247 -249 -250 -109 0 
-240 1 2 3 4 6 7 18 19 58 77 78 79 80 81 82 83 86 88 89 111 145 157 158 160 163 165 172 173 174 175 176 177 178 179 180 181 182 184 185 186 187 188 189 190 191 193 199 200 201 202 223 224 226 227 228 229 230 231 232 233 234 236 237 238 239 241 242 243 244 245 247 -249 -250 -109 0 
-241 1 2 3 4 6 7 18 19 58 77 78 79 80 81 82 83 86 88 89 111 145 157 158 160 163 165 172 173 174 175 176 177 178 179 180 181 182 184 185 186 187 188 189 190 191 193 199 200 201 202 223 224 226 227 228 229 230 231 232 233 234 236 237 238 239 240 242 243 244 245 247 -249 -250 -109 0 
-242 1 2 3 4 6 7 18 19 58 77 78 79 80 81 82 83 86 88 89 111 145 157 158 160 163 165 172 173 174 175 176 177 178 179 180 181 182 184 185 186 187 188 189 190 191 193 199 200 201 202 223 224 226 227 228 229 230 231 232 233 234 236 237 238 239 240 241 243 244 245 247 -249 -250 -109 0 
-243 1 2 3 4 6 7 18 19 58 77 78 79 80 81 82 83 86 88 89 111 145 157 158 160 163 165 172 173 174 175 176 177 178 179 180 181 182 184 185 186 187 188 189 190 191 193 199 200 201 202 223 224 226 227 228 229 230 231 232 233 234 236 237 238 239 240 241 242 244 245 247 -249 -250 -109 0 
-244 1 2 3 4 6 7 18 19 58 77 78 79 80 81 82 83 86 88 89 111 145 157 158 160 163 165 172 173 174 175 176 177 178 179 180 181 182 184 185 186 187 188 189 190 191 193 199 200 201 202 223 224 226 227 228 229 230 231 232 233 234 236 237 238 239 240 241 242 243 245 247 -249 -250 -109 0 
-245 1 2 3 4 6 7 18 19 58 77 78 79 80 81 82 83 86 88 89 111 145 157 158 160 163 165 172 173 174 175 176 177 178 179 180 181 182 184 185 186 187 188 189 190 191 193 199 200 201 202 223 224 226 227 228 229 230 231 232 233 234 236 237 238 239 240 241 242 243 244 248 -249 -250 -12 -21 -24 -37 0 
-12 21 24 37 -246 36 46 61 71 122 142 156 162 164 168 204 205 206 207 208 249 -250 0 
